22
1 0 3
2 0 3
2 1 1
3 0 2
3 1 5
3 2 8
4 0 4
4 1 8
4 2 1
4 3 6
5 0 1
5 1 5
5 2 7
5 3 6
5 4 5
6 0 6
6 1 1
6 2 1
6 3 4
6 4 4
6 5 8
7 0 4
7 1 4
7 2 6
7 3 3
7 4 4
7 5 6
7 6 7
8 0 3
8 1 1
8 2 6
8 3 8
8 4 6
8 5 1
8 6 8
8 7 2
9 0 6
9 1 7
9 2 7
9 3 6
9 4 2
9 5 2
9 6 8
9 7 2
9 8 8
10 0 4
10 1 1
10 2 5
10 3 7
10 4 1
10 5 7
10 6 7
10 7 6
10 8 1
10 9 6
11 0 1
11 1 2
11 2 7
11 3 2
11 4 6
11 5 6
11 6 1
11 7 8
11 8 4
11 9 7
11 10 5
12 0 5
12 1 8
12 2 8
12 3 8
12 4 6
12 5 4
12 6 8
12 7 8
12 8 5
12 9 7
12 10 3
12 11 4
13 0 6
13 1 1
13 2 5
13 3 5
13 4 1
13 5 3
13 6 7
13 7 4
13 8 4
13 9 4
13 10 5
13 11 4
13 12 6
14 0 3
14 1 3
14 2 8
14 3 2
14 4 1
14 5 6
14 6 4
14 7 5
14 8 8
14 9 2
14 10 8
14 11 3
14 12 4
14 13 2
15 0 4
15 1 3
15 2 3
15 3 2
15 4 1
15 5 8
15 6 2
15 7 6
15 8 2
15 9 8
15 10 8
15 11 1
15 12 5
15 13 3
15 14 6
16 0 8
16 1 5
16 2 5
16 3 4
16 4 8
16 5 1
16 6 5
16 7 2
16 8 3
16 9 5
16 10 8
16 11 3
16 12 4
16 13 7
16 14 7
16 15 7
17 0 8
17 1 5
17 2 7
17 3 5
17 4 3
17 5 8
17 6 4
17 7 2
17 8 5
17 9 1
17 10 1
17 11 1
17 12 2
17 13 5
17 14 5
17 15 8
17 16 1
18 0 2
18 1 6
18 2 2
18 3 4
18 4 8
18 5 2
18 6 3
18 7 4
18 8 2
18 9 8
18 10 5
18 11 6
18 12 3
18 13 1
18 14 8
18 15 7
18 16 3
18 17 6
19 0 3
19 1 1
19 2 6
19 3 2
19 4 1
19 5 4
19 6 3
19 7 5
19 8 8
19 9 8
19 10 1
19 11 8
19 12 6
19 13 1
19 14 5
19 15 7
19 16 3
19 17 4
19 18 8
20 0 5
20 1 2
20 2 5
20 3 3
20 4 8
20 5 6
20 6 6
20 7 4
20 8 2
20 9 6
20 10 4
20 11 7
20 12 3
20 13 6
20 14 6
20 15 8
20 16 2
20 17 6
20 18 1
20 19 8
21 0 2
21 1 4
21 2 5
21 3 5
21 4 3
21 5 2
21 6 3
21 7 7
21 8 3
21 9 5
21 10 3
21 11 1
21 12 7
21 13 8
21 14 8
21 15 7
21 16 4
21 17 5
21 18 1
21 19 8
21 20 8
